Route #1: 35 22 28 43 59 18 33 34 27 24 42 12 46 2 32 36 56 58 60 51
Route #2: 16 21 57 19 20 38 48 26 10 4 40 5 25 55 47 50
Route #3: 9 7 41 30 44 62
Route #4: 1 45 3 37 23 11 52
Route #5: 13 14 6 61 15 49 39 31 54
Route #6: 
Route #7: 53 17
Route #8: 29 8
cost 1960.9351941492596
